100 94359

 342 299
967 120
595 410
802 29
265 212
211 433
784 419
686 45
681 590
553 550
564 79
736 944
271 100
353 855
872 1
309 883
547 20
703 758
1000 362
436 739
429 402
843 71
806 768
732 72
464 923
324 51
609 480
877 724
884 394
109 218
429 760
465 785
978 923
678 377
408 507
27 364
566 258
97 752
835 340
753 429
461 404
430 713
898 918
289 667
250 472
940 780
810 641
821 61
196 96
144 38
27 457
238 826
775 314
241 385
730 910
252 837
396 666
984 267
245 118
377 17
302 108
110 293
490 552
379 65
695 137
818 182
545 632
33 616
619 551
56 251
617 372
686 97
198 227
820 898
912 980
814 648
306 917
587 643
915 34
321 997
821 99
10 683
4 253
760 392
762 646
789 437
931 251
118 335
232 342
904 960
178 799
683 459
531 200
84 812
286 158
521 211
853 367
708 881
622 132
497 123
